(set-logic QF_LIA)
(set-info :ran/ran8.smt2)
(set-info :smt-lib-version 2.0)
(declare-fun x0 () Int)
(declare-fun x1 () Int)
(declare-fun x2 () Int)
(declare-fun x3 () Int)
(declare-fun x4 () Int)
(declare-fun x5 () Int)
(declare-fun x6 () Int)
(declare-fun x7 () Int)
(define-fun ie0 () Bool (<= (+ (* (- 48) x5) (* 81 x6) (* 53 x7) ) 24))
(define-fun ie1 () Bool (<= (+ (* 45 x4) (* 80 x4) (* (- 64) x3) ) (- 59)))
(define-fun ie2 () Bool (<= (+ (* (- 48) x1) (* (- 84) x3) (* 91 x3) (* 23 x5) ) 61))
(define-fun ie3 () Bool (<= (+ (* (- 74) x3) (* 30 x7) (* (- 52) x6) (* 56 x5) ) 88))
(define-fun ie4 () Bool (<= (+ (* (- 15) x0) (* (- 29) x6) (* 89 x3) (* 38 x1) ) 98))
(define-fun ie5 () Bool (<= (+ (* (- 88) x2) (* (- 88) x4) (* 10 x4) (* (- 37) x1) ) (- 19)))
(define-fun ie6 () Bool (<= (+ (* (- 37) x3) (* (- 1) x1) (* 38 x4) (* (- 21) x6) ) 29))
(define-fun ie7 () Bool (<= (+ (* 7 x6) (* 79 x3) (* 48 x0) (* 82 x6) ) 46))
(assert ie0)
(assert ie1)
(assert ie2)
(assert ie3)
(assert ie4)
(assert ie5)
(assert ie6)
(assert ie7)
(check-sat)
(exit)
